NPROCS=0
This instance is clustered!
Gurobi Optimizer version 9.0.0 build v9.0.0rc2 (linux64)
Optimize a model with 18 rows, 82 columns and 162 nonzeros
Model fingerprint: 0x6a4a3a1e
Variable types: 1 continuous, 81 integer (81 binary)
Coefficient statistics:
  Matrix range     [1e+00, 1e+00]
  Objective range  [1e+00, 5e+01]
  Bounds range     [1e+00, 1e+00]
  RHS range        [1e+00, 1e+00]
 done with super cut 0
Presolve removed 2 rows and 24 columns
Presolve time: 0.00s
Presolved: 16 rows, 58 columns, 114 nonzeros
Variable types: 1 continuous, 57 integer (57 binary)

Root relaxation: objective 4.583505e+01, 11 iterations, 0.00 seconds
 done with super cut 1

    Nodes    |    Current Node    |     Objective Bounds      |     Work
 Expl Unexpl |  Obj  Depth IntInf | Incumbent    BestBd   Gap | It/Node Time

     0     0  114.44503    0   13          -  114.44503      -     -    0s
     0     0  115.80378    0   15          -  115.80378      -     -    0s
 done with super cut 2
     0     0  115.80378    0   15          -  115.80378      -     -    0s
 done with super cut 3
 done with super cut 4
H    0     0                     125.8096878  115.80378  7.95%     -    0s
     0     2  116.06807    0   19  125.80969  116.06807  7.74%     -    0s
 done with super cut 5
 done with super cut 6
 done with super cut 7
 done with super cut 8
 done with super cut 9
 done with super cut 10
*   38     5              10     124.4698306  123.31833  0.93%   3.8    0s

Cutting planes:
  Gomory: 1
  Lazy constraints: 23

Explored 50 nodes (205 simplex iterations) in 0.38 seconds
Thread count was 12 (of 12 available processors)

Solution count 2: 124.47 125.81 

Optimal solution found (tolerance 1.00e-04)
Best objective 1.244698305801e+02, best bound 1.244698305801e+02, gap 0.0000%

User-callback calls 195, time in user-callback 0.36 sec
/projects/academic/josewalt/caigao/RRARP_BD/BendersDecomp/ret/model_outs/n_7_m_9_algo_4.out
 =====>>>>> Solution is written to file in <../ret/model_outs> !!!
===>> All Done!
